clingo version 5.5.2
Reading from ...nt/beegfs/home/jubruns/encoding/mif.lp ...
Solving...
Answer: 1
move(1,(8,13),(7,13),2) move(1,(7,13),(7,12),3) move(1,(7,12),(7,11),4) move(1,(7,11),(8,11),5) move(1,(8,11),(7,11),6) move(1,(7,11),(6,11),7) move(1,(6,11),(7,11),11) move(1,(7,11),(7,12),12) move(1,(7,12),(7,13),14) move(1,(7,13),(8,13),17) move(1,(8,13),(7,13),18) move(1,(7,13),(8,13),19) move(1,(8,13),(9,13),20) move(1,(9,13),(9,14),22) move(2,(7,11),(6,11),2) move(2,(6,11),(5,11),3) move(2,(5,11),(5,10),4) move(2,(5,10),(5,9),5) move(2,(5,9),(4,9),6) move(2,(4,9),(3,9),7) move(2,(3,9),(2,9),8) move(2,(2,9),(1,9),9) move(2,(1,9),(1,10),10) move(2,(1,10),(1,11),11) move(2,(1,11),(1,12),12) move(2,(1,12),(1,13),13) move(2,(1,13),(1,12),21) move(2,(1,12),(1,11),22) move(3,(9,14),(9,13),1) move(3,(9,13),(8,13),2) move(3,(8,13),(7,13),3) move(3,(7,13),(7,12),4) move(3,(7,12),(7,11),5) move(3,(7,11),(6,11),6) move(3,(6,11),(5,11),7) move(3,(5,11),(5,10),8) move(3,(5,10),(5,9),9) move(3,(5,9),(4,9),10) move(3,(4,9),(3,9),11) move(3,(3,9),(2,9),12) move(3,(2,9),(1,9),13) move(3,(1,9),(1,8),14) move(3,(1,8),(1,7),15) move(3,(1,7),(2,7),16) move(3,(2,7),(3,7),17) move(3,(3,7),(3,6),18) move(3,(3,6),(3,5),19) move(3,(3,5),(2,5),20) move(3,(2,5),(1,5),21) move(3,(1,5),(1,4),22) move(4,(1,8),(1,7),2) move(4,(1,7),(1,8),3) move(4,(1,8),(1,9),4) move(4,(1,9),(2,9),5) move(4,(2,9),(3,9),6) move(4,(3,9),(3,10),7) move(4,(3,10),(3,9),8) move(4,(3,9),(2,9),9) move(4,(2,9),(3,9),10) move(4,(3,9),(3,10),11) move(4,(3,10),(3,9),12) move(4,(3,9),(4,9),13) move(4,(4,9),(5,9),14) move(4,(5,9),(5,10),15) move(4,(5,10),(5,9),17) move(4,(5,9),(4,9),18) move(4,(4,9),(5,9),21) move(4,(5,9),(5,10),22) move(5,(7,7),(7,8),2) move(5,(7,8),(7,9),3) move(5,(7,9),(8,9),4) move(5,(8,9),(9,9),5) move(5,(9,9),(8,9),17) move(5,(8,9),(7,9),18) move(5,(7,9),(7,8),19) move(5,(7,8),(7,7),20) move(5,(7,7),(8,7),21) move(5,(8,7),(9,7),22) move(6,(13,1),(13,2),2) move(6,(13,2),(13,3),3) move(6,(13,3),(12,3),4) move(6,(12,3),(11,3),5) move(6,(11,3),(10,3),6) move(6,(10,3),(9,3),7) move(6,(9,3),(9,2),8) move(6,(9,2),(9,1),9) move(6,(9,1),(8,1),10) move(6,(8,1),(7,1),11) move(6,(7,1),(7,2),12) move(6,(7,2),(7,3),13) move(6,(7,3),(6,3),14) move(6,(6,3),(5,3),15) move(6,(5,3),(4,3),16) move(6,(4,3),(3,3),17) move(6,(3,3),(2,3),18) move(6,(2,3),(3,3),19) move(6,(3,3),(2,3),20) move(6,(2,3),(1,3),22) move(7,(12,13),(11,13),2) move(7,(11,13),(11,12),3) move(7,(11,12),(11,11),4) move(7,(11,11),(10,11),5) move(7,(10,11),(9,11),6) move(7,(9,11),(8,11),7) move(7,(8,11),(7,11),8) move(7,(7,11),(7,12),10) move(7,(7,12),(7,13),11) move(7,(7,13),(8,13),13) move(7,(8,13),(9,13),14) move(7,(9,13),(9,14),15) move(7,(9,14),(9,15),16) move(7,(9,15),(9,14),20) move(7,(9,14),(9,15),22)
SATISFIABLE

Models       : 1+
Calls        : 1
Time         : 0.374s (Solving: 0.01s 1st Model: 0.01s Unsat: 0.00s)
CPU Time     : 0.325s

Choices      : 1561     (Domain: 1561)
Conflicts    : 77       (Analyzed: 77)
Restarts     : 1        (Average: 77.00 Last: 12)
Model-Level  : 415.0   
Problems     : 1        (Average Length: 0.00 Splits: 0)
Lemmas       : 77       (Deleted: 0)
  Binary     : 0        (Ratio:   0.00%)
  Ternary    : 3        (Ratio:   3.90%)
  Conflict   : 77       (Average Length:   36.3 Ratio: 100.00%) 
  Loop       : 0        (Average Length:    0.0 Ratio:   0.00%) 
  Other      : 0        (Average Length:    0.0 Ratio:   0.00%) 
Backjumps    : 77       (Average: 11.42 Max: 403 Sum:    879)
  Executed   : 77       (Average: 11.42 Max: 403 Sum:    879 Ratio: 100.00%)
  Bounded    : 0        (Average:  0.00 Max:   0 Sum:      0 Ratio:   0.00%)

Rules        : 121597   (Original: 83856)
  Choice     : 154     
  Heuristic  : 3873     (Original: 4519)
Atoms        : 56339    (Original: 41653 Auxiliary: 14686)
Bodies       : 70373    (Original: 46950)
  Count      : 135      (Original: 1156)
Equivalences : 104950   (Atom=Atom: 259 Body=Body: 337 Other: 104354)
Tight        : Yes
Variables    : 64535    (Eliminated:    0 Frozen: 22148)
Constraints  : 142192   (Binary:  83.5% Ternary:  11.5% Other:   4.9%)

